c Problem generated from carry-save[n-bit] multiplication circuit
c by Paul Purdom and Amr Sabry
c
c Circuit for product = 701 [True,False,True,False,True,True,True,True,False,True]
c Variables for output [msb,...,lsb]: [232,231,226,221,216,211,206,201,197,151,102,53,26,15]
c Variables for first input [msb,...,lsb]: [9,8,7,6,5,4,3,2,1]
c Variables for second input [msb,...,lsb]: [14,13,12,11,10]
c
c
p cnf 232 886
1 10 -15 0
1 -10 -15 0
-1 10 -15 0
-1 -10 15 0
2 10 -16 0
2 -10 -16 0
-2 10 -16 0
-2 -10 16 0
3 10 -17 0
3 -10 -17 0
-3 10 -17 0
-3 -10 17 0
4 10 -18 0
4 -10 -18 0
-4 10 -18 0
-4 -10 18 0
5 10 -19 0
5 -10 -19 0
-5 10 -19 0
-5 -10 19 0
6 10 -20 0
6 -10 -20 0
-6 10 -20 0
-6 -10 20 0
7 10 -21 0
7 -10 -21 0
-7 10 -21 0
-7 -10 21 0
8 10 -22 0
8 -10 -22 0
-8 10 -22 0
-8 -10 22 0
9 10 -23 0
9 -10 -23 0
-9 10 -23 0
-9 -10 23 0
1 11 -24 0
1 -11 -24 0
-1 11 -24 0
-1 -11 24 0
16 24 -25 0
16 -24 -25 0
-16 24 -25 0
-16 -24 25 0
16 24 -26 0
16 -24 26 0
-16 24 26 0
-16 -24 -26 0
2 11 -27 0
2 -11 -27 0
-2 11 -27 0
-2 -11 27 0
17 27 -28 0
17 -27 -28 0
-17 27 -28 0
-17 -27 28 0
17 27 -29 0
17 -27 29 0
-17 27 29 0
-17 -27 -29 0
3 11 -30 0
3 -11 -30 0
-3 11 -30 0
-3 -11 30 0
18 30 -31 0
18 -30 -31 0
-18 30 -31 0
-18 -30 31 0
18 30 -32 0
18 -30 32 0
-18 30 32 0
-18 -30 -32 0
4 11 -33 0
4 -11 -33 0
-4 11 -33 0
-4 -11 33 0
19 33 -34 0
19 -33 -34 0
-19 33 -34 0
-19 -33 34 0
19 33 -35 0
19 -33 35 0
-19 33 35 0
-19 -33 -35 0
5 11 -36 0
5 -11 -36 0
-5 11 -36 0
-5 -11 36 0
20 36 -37 0
20 -36 -37 0
-20 36 -37 0
-20 -36 37 0
20 36 -38 0
20 -36 38 0
-20 36 38 0
-20 -36 -38 0
6 11 -39 0
6 -11 -39 0
-6 11 -39 0
-6 -11 39 0
21 39 -40 0
21 -39 -40 0
-21 39 -40 0
-21 -39 40 0
21 39 -41 0
21 -39 41 0
-21 39 41 0
-21 -39 -41 0
7 11 -42 0
7 -11 -42 0
-7 11 -42 0
-7 -11 42 0
22 42 -43 0
22 -42 -43 0
-22 42 -43 0
-22 -42 43 0
22 42 -44 0
22 -42 44 0
-22 42 44 0
-22 -42 -44 0
8 11 -45 0
8 -11 -45 0
-8 11 -45 0
-8 -11 45 0
23 45 -46 0
23 -45 -46 0
-23 45 -46 0
-23 -45 46 0
23 45 -47 0
23 -45 47 0
-23 45 47 0
-23 -45 -47 0
9 11 -48 0
9 -11 -48 0
-9 11 -48 0
-9 -11 48 0
1 12 -49 0
1 -12 -49 0
-1 12 -49 0
-1 -12 49 0
29 49 -50 0
29 -49 -50 0
-29 49 -50 0
-29 -49 50 0
29 49 -51 0
29 -49 51 0
-29 49 51 0
-29 -49 -51 0
25 51 -52 0
25 -51 -52 0
-25 51 -52 0
-25 -51 52 0
25 51 -53 0
25 -51 53 0
-25 51 53 0
-25 -51 -53 0
50 52 -54 0
50 -52 54 0
-50 52 54 0
-50 -52 -54 0
2 12 -55 0
2 -12 -55 0
-2 12 -55 0
-2 -12 55 0
32 55 -56 0
32 -55 -56 0
-32 55 -56 0
-32 -55 56 0
32 55 -57 0
32 -55 57 0
-32 55 57 0
-32 -55 -57 0
28 57 -58 0
28 -57 -58 0
-28 57 -58 0
-28 -57 58 0
28 57 -59 0
28 -57 59 0
-28 57 59 0
-28 -57 -59 0
56 58 -60 0
56 -58 60 0
-56 58 60 0
-56 -58 -60 0
3 12 -61 0
3 -12 -61 0
-3 12 -61 0
-3 -12 61 0
35 61 -62 0
35 -61 -62 0
-35 61 -62 0
-35 -61 62 0
35 61 -63 0
35 -61 63 0
-35 61 63 0
-35 -61 -63 0
31 63 -64 0
31 -63 -64 0
-31 63 -64 0
-31 -63 64 0
31 63 -65 0
31 -63 65 0
-31 63 65 0
-31 -63 -65 0
62 64 -66 0
62 -64 66 0
-62 64 66 0
-62 -64 -66 0
4 12 -67 0
4 -12 -67 0
-4 12 -67 0
-4 -12 67 0
38 67 -68 0
38 -67 -68 0
-38 67 -68 0
-38 -67 68 0
38 67 -69 0
38 -67 69 0
-38 67 69 0
-38 -67 -69 0
34 69 -70 0
34 -69 -70 0
-34 69 -70 0
-34 -69 70 0
34 69 -71 0
34 -69 71 0
-34 69 71 0
-34 -69 -71 0
68 70 -72 0
68 -70 72 0
-68 70 72 0
-68 -70 -72 0
5 12 -73 0
5 -12 -73 0
-5 12 -73 0
-5 -12 73 0
41 73 -74 0
41 -73 -74 0
-41 73 -74 0
-41 -73 74 0
41 73 -75 0
41 -73 75 0
-41 73 75 0
-41 -73 -75 0
37 75 -76 0
37 -75 -76 0
-37 75 -76 0
-37 -75 76 0
37 75 -77 0
37 -75 77 0
-37 75 77 0
-37 -75 -77 0
74 76 -78 0
74 -76 78 0
-74 76 78 0
-74 -76 -78 0
6 12 -79 0
6 -12 -79 0
-6 12 -79 0
-6 -12 79 0
44 79 -80 0
44 -79 -80 0
-44 79 -80 0
-44 -79 80 0
44 79 -81 0
44 -79 81 0
-44 79 81 0
-44 -79 -81 0
40 81 -82 0
40 -81 -82 0
-40 81 -82 0
-40 -81 82 0
40 81 -83 0
40 -81 83 0
-40 81 83 0
-40 -81 -83 0
80 82 -84 0
80 -82 84 0
-80 82 84 0
-80 -82 -84 0
7 12 -85 0
7 -12 -85 0
-7 12 -85 0
-7 -12 85 0
47 85 -86 0
47 -85 -86 0
-47 85 -86 0
-47 -85 86 0
47 85 -87 0
47 -85 87 0
-47 85 87 0
-47 -85 -87 0
43 87 -88 0
43 -87 -88 0
-43 87 -88 0
-43 -87 88 0
43 87 -89 0
43 -87 89 0
-43 87 89 0
-43 -87 -89 0
86 88 -90 0
86 -88 90 0
-86 88 90 0
-86 -88 -90 0
8 12 -91 0
8 -12 -91 0
-8 12 -91 0
-8 -12 91 0
48 91 -92 0
48 -91 -92 0
-48 91 -92 0
-48 -91 92 0
48 91 -93 0
48 -91 93 0
-48 91 93 0
-48 -91 -93 0
46 93 -94 0
46 -93 -94 0
-46 93 -94 0
-46 -93 94 0
46 93 -95 0
46 -93 95 0
-46 93 95 0
-46 -93 -95 0
92 94 -96 0
92 -94 96 0
-92 94 96 0
-92 -94 -96 0
9 12 -97 0
9 -12 -97 0
-9 12 -97 0
-9 -12 97 0
1 13 -98 0
1 -13 -98 0
-1 13 -98 0
-1 -13 98 0
59 98 -99 0
59 -98 -99 0
-59 98 -99 0
-59 -98 99 0
59 98 -100 0
59 -98 100 0
-59 98 100 0
-59 -98 -100 0
54 100 -101 0
54 -100 -101 0
-54 100 -101 0
-54 -100 101 0
54 100 -102 0
54 -100 102 0
-54 100 102 0
-54 -100 -102 0
99 101 -103 0
99 -101 103 0
-99 101 103 0
-99 -101 -103 0
2 13 -104 0
2 -13 -104 0
-2 13 -104 0
-2 -13 104 0
65 104 -105 0
65 -104 -105 0
-65 104 -105 0
-65 -104 105 0
65 104 -106 0
65 -104 106 0
-65 104 106 0
-65 -104 -106 0
60 106 -107 0
60 -106 -107 0
-60 106 -107 0
-60 -106 107 0
60 106 -108 0
60 -106 108 0
-60 106 108 0
-60 -106 -108 0
105 107 -109 0
105 -107 109 0
-105 107 109 0
-105 -107 -109 0
3 13 -110 0
3 -13 -110 0
-3 13 -110 0
-3 -13 110 0
71 110 -111 0
71 -110 -111 0
-71 110 -111 0
-71 -110 111 0
71 110 -112 0
71 -110 112 0
-71 110 112 0
-71 -110 -112 0
66 112 -113 0
66 -112 -113 0
-66 112 -113 0
-66 -112 113 0
66 112 -114 0
66 -112 114 0
-66 112 114 0
-66 -112 -114 0
111 113 -115 0
111 -113 115 0
-111 113 115 0
-111 -113 -115 0
4 13 -116 0
4 -13 -116 0
-4 13 -116 0
-4 -13 116 0
77 116 -117 0
77 -116 -117 0
-77 116 -117 0
-77 -116 117 0
77 116 -118 0
77 -116 118 0
-77 116 118 0
-77 -116 -118 0
72 118 -119 0
72 -118 -119 0
-72 118 -119 0
-72 -118 119 0
72 118 -120 0
72 -118 120 0
-72 118 120 0
-72 -118 -120 0
117 119 -121 0
117 -119 121 0
-117 119 121 0
-117 -119 -121 0
5 13 -122 0
5 -13 -122 0
-5 13 -122 0
-5 -13 122 0
83 122 -123 0
83 -122 -123 0
-83 122 -123 0
-83 -122 123 0
83 122 -124 0
83 -122 124 0
-83 122 124 0
-83 -122 -124 0
78 124 -125 0
78 -124 -125 0
-78 124 -125 0
-78 -124 125 0
78 124 -126 0
78 -124 126 0
-78 124 126 0
-78 -124 -126 0
123 125 -127 0
123 -125 127 0
-123 125 127 0
-123 -125 -127 0
6 13 -128 0
6 -13 -128 0
-6 13 -128 0
-6 -13 128 0
89 128 -129 0
89 -128 -129 0
-89 128 -129 0
-89 -128 129 0
89 128 -130 0
89 -128 130 0
-89 128 130 0
-89 -128 -130 0
84 130 -131 0
84 -130 -131 0
-84 130 -131 0
-84 -130 131 0
84 130 -132 0
84 -130 132 0
-84 130 132 0
-84 -130 -132 0
129 131 -133 0
129 -131 133 0
-129 131 133 0
-129 -131 -133 0
7 13 -134 0
7 -13 -134 0
-7 13 -134 0
-7 -13 134 0
95 134 -135 0
95 -134 -135 0
-95 134 -135 0
-95 -134 135 0
95 134 -136 0
95 -134 136 0
-95 134 136 0
-95 -134 -136 0
90 136 -137 0
90 -136 -137 0
-90 136 -137 0
-90 -136 137 0
90 136 -138 0
90 -136 138 0
-90 136 138 0
-90 -136 -138 0
135 137 -139 0
135 -137 139 0
-135 137 139 0
-135 -137 -139 0
8 13 -140 0
8 -13 -140 0
-8 13 -140 0
-8 -13 140 0
97 140 -141 0
97 -140 -141 0
-97 140 -141 0
-97 -140 141 0
97 140 -142 0
97 -140 142 0
-97 140 142 0
-97 -140 -142 0
96 142 -143 0
96 -142 -143 0
-96 142 -143 0
-96 -142 143 0
96 142 -144 0
96 -142 144 0
-96 142 144 0
-96 -142 -144 0
141 143 -145 0
141 -143 145 0
-141 143 145 0
-141 -143 -145 0
9 13 -146 0
9 -13 -146 0
-9 13 -146 0
-9 -13 146 0
1 14 -147 0
1 -14 -147 0
-1 14 -147 0
-1 -14 147 0
108 147 -148 0
108 -147 -148 0
-108 147 -148 0
-108 -147 148 0
108 147 -149 0
108 -147 149 0
-108 147 149 0
-108 -147 -149 0
103 149 -150 0
103 -149 -150 0
-103 149 -150 0
-103 -149 150 0
103 149 -151 0
103 -149 151 0
-103 149 151 0
-103 -149 -151 0
148 150 -152 0
148 -150 152 0
-148 150 152 0
-148 -150 -152 0
2 14 -153 0
2 -14 -153 0
-2 14 -153 0
-2 -14 153 0
114 153 -154 0
114 -153 -154 0
-114 153 -154 0
-114 -153 154 0
114 153 -155 0
114 -153 155 0
-114 153 155 0
-114 -153 -155 0
109 155 -156 0
109 -155 -156 0
-109 155 -156 0
-109 -155 156 0
109 155 -157 0
109 -155 157 0
-109 155 157 0
-109 -155 -157 0
154 156 -158 0
154 -156 158 0
-154 156 158 0
-154 -156 -158 0
3 14 -159 0
3 -14 -159 0
-3 14 -159 0
-3 -14 159 0
120 159 -160 0
120 -159 -160 0
-120 159 -160 0
-120 -159 160 0
120 159 -161 0
120 -159 161 0
-120 159 161 0
-120 -159 -161 0
115 161 -162 0
115 -161 -162 0
-115 161 -162 0
-115 -161 162 0
115 161 -163 0
115 -161 163 0
-115 161 163 0
-115 -161 -163 0
160 162 -164 0
160 -162 164 0
-160 162 164 0
-160 -162 -164 0
4 14 -165 0
4 -14 -165 0
-4 14 -165 0
-4 -14 165 0
126 165 -166 0
126 -165 -166 0
-126 165 -166 0
-126 -165 166 0
126 165 -167 0
126 -165 167 0
-126 165 167 0
-126 -165 -167 0
121 167 -168 0
121 -167 -168 0
-121 167 -168 0
-121 -167 168 0
121 167 -169 0
121 -167 169 0
-121 167 169 0
-121 -167 -169 0
166 168 -170 0
166 -168 170 0
-166 168 170 0
-166 -168 -170 0
5 14 -171 0
5 -14 -171 0
-5 14 -171 0
-5 -14 171 0
132 171 -172 0
132 -171 -172 0
-132 171 -172 0
-132 -171 172 0
132 171 -173 0
132 -171 173 0
-132 171 173 0
-132 -171 -173 0
127 173 -174 0
127 -173 -174 0
-127 173 -174 0
-127 -173 174 0
127 173 -175 0
127 -173 175 0
-127 173 175 0
-127 -173 -175 0
172 174 -176 0
172 -174 176 0
-172 174 176 0
-172 -174 -176 0
6 14 -177 0
6 -14 -177 0
-6 14 -177 0
-6 -14 177 0
138 177 -178 0
138 -177 -178 0
-138 177 -178 0
-138 -177 178 0
138 177 -179 0
138 -177 179 0
-138 177 179 0
-138 -177 -179 0
133 179 -180 0
133 -179 -180 0
-133 179 -180 0
-133 -179 180 0
133 179 -181 0
133 -179 181 0
-133 179 181 0
-133 -179 -181 0
178 180 -182 0
178 -180 182 0
-178 180 182 0
-178 -180 -182 0
7 14 -183 0
7 -14 -183 0
-7 14 -183 0
-7 -14 183 0
144 183 -184 0
144 -183 -184 0
-144 183 -184 0
-144 -183 184 0
144 183 -185 0
144 -183 185 0
-144 183 185 0
-144 -183 -185 0
139 185 -186 0
139 -185 -186 0
-139 185 -186 0
-139 -185 186 0
139 185 -187 0
139 -185 187 0
-139 185 187 0
-139 -185 -187 0
184 186 -188 0
184 -186 188 0
-184 186 188 0
-184 -186 -188 0
8 14 -189 0
8 -14 -189 0
-8 14 -189 0
-8 -14 189 0
146 189 -190 0
146 -189 -190 0
-146 189 -190 0
-146 -189 190 0
146 189 -191 0
146 -189 191 0
-146 189 191 0
-146 -189 -191 0
145 191 -192 0
145 -191 -192 0
-145 191 -192 0
-145 -191 192 0
145 191 -193 0
145 -191 193 0
-145 191 193 0
-145 -191 -193 0
190 192 -194 0
190 -192 194 0
-190 192 194 0
-190 -192 -194 0
9 14 -195 0
9 -14 -195 0
-9 14 -195 0
-9 -14 195 0
152 157 -196 0
152 -157 -196 0
-152 157 -196 0
-152 -157 196 0
152 157 -197 0
152 -157 197 0
-152 157 197 0
-152 -157 -197 0
158 163 -198 0
158 -163 -198 0
-158 163 -198 0
-158 -163 198 0
158 163 -199 0
158 -163 199 0
-158 163 199 0
-158 -163 -199 0
196 199 -200 0
196 -199 -200 0
-196 199 -200 0
-196 -199 200 0
196 199 -201 0
196 -199 201 0
-196 199 201 0
-196 -199 -201 0
198 200 -202 0
198 -200 202 0
-198 200 202 0
-198 -200 -202 0
164 169 -203 0
164 -169 -203 0
-164 169 -203 0
-164 -169 203 0
164 169 -204 0
164 -169 204 0
-164 169 204 0
-164 -169 -204 0
202 204 -205 0
202 -204 -205 0
-202 204 -205 0
-202 -204 205 0
202 204 -206 0
202 -204 206 0
-202 204 206 0
-202 -204 -206 0
203 205 -207 0
203 -205 207 0
-203 205 207 0
-203 -205 -207 0
170 175 -208 0
170 -175 -208 0
-170 175 -208 0
-170 -175 208 0
170 175 -209 0
170 -175 209 0
-170 175 209 0
-170 -175 -209 0
207 209 -210 0
207 -209 -210 0
-207 209 -210 0
-207 -209 210 0
207 209 -211 0
207 -209 211 0
-207 209 211 0
-207 -209 -211 0
208 210 -212 0
208 -210 212 0
-208 210 212 0
-208 -210 -212 0
176 181 -213 0
176 -181 -213 0
-176 181 -213 0
-176 -181 213 0
176 181 -214 0
176 -181 214 0
-176 181 214 0
-176 -181 -214 0
212 214 -215 0
212 -214 -215 0
-212 214 -215 0
-212 -214 215 0
212 214 -216 0
212 -214 216 0
-212 214 216 0
-212 -214 -216 0
213 215 -217 0
213 -215 217 0
-213 215 217 0
-213 -215 -217 0
182 187 -218 0
182 -187 -218 0
-182 187 -218 0
-182 -187 218 0
182 187 -219 0
182 -187 219 0
-182 187 219 0
-182 -187 -219 0
217 219 -220 0
217 -219 -220 0
-217 219 -220 0
-217 -219 220 0
217 219 -221 0
217 -219 221 0
-217 219 221 0
-217 -219 -221 0
218 220 -222 0
218 -220 222 0
-218 220 222 0
-218 -220 -222 0
188 193 -223 0
188 -193 -223 0
-188 193 -223 0
-188 -193 223 0
188 193 -224 0
188 -193 224 0
-188 193 224 0
-188 -193 -224 0
222 224 -225 0
222 -224 -225 0
-222 224 -225 0
-222 -224 225 0
222 224 -226 0
222 -224 226 0
-222 224 226 0
-222 -224 -226 0
223 225 -227 0
223 -225 227 0
-223 225 227 0
-223 -225 -227 0
194 195 -228 0
194 -195 -228 0
-194 195 -228 0
-194 -195 228 0
194 195 -229 0
194 -195 229 0
-194 195 229 0
-194 -195 -229 0
227 229 -230 0
227 -229 -230 0
-227 229 -230 0
-227 -229 230 0
227 229 -231 0
227 -229 231 0
-227 229 231 0
-227 -229 -231 0
228 230 -232 0
228 -230 232 0
-228 230 232 0
-228 -230 -232 0
15 0
-26 0
53 0
102 0
151 0
197 0
-201 0
206 0
-211 0
216 0
-221 0
-226 0
-231 0
-232 0